NAME /Users/henri/Research/solvers/instances/idol-instances/robust/collection/cbp_Subramanyam_et_al_2020/CapBud_N15_6/models/uncertain_technology_matrix/
ROWS
 N  OBJ
 L  capacity
 L  c_1435
 L  c_1436
 L  c_1437
 L  c_1438
 L  c_1439
 L  c_1440
 L  c_1441
 L  c_1442
 L  c_1443
 L  c_1444
 L  c_1445
 L  c_1446
 L  c_1447
 L  c_1448
 L  c_1449
COLUMNS
    MARKER    'MARKER'                 'INTORG'
    x_0        OBJ        -7.21695
    x_0        c_1435     1
    x_0        capacity   1.44339
    x_1        OBJ        -8.53532
    x_1        c_1436     1
    x_1        capacity   1.70706
    x_2        OBJ        -2.52686
    x_2        c_1437     1
    x_2        capacity   0.505371
    x_3        OBJ        -2.06924
    x_3        c_1438     1
    x_3        capacity   0.413848
    x_4        OBJ        -7.46231
    x_4        c_1439     1
    x_4        capacity   1.49246
    x_5        OBJ        -1.86489
    x_5        c_1440     1
    x_5        capacity   0.372977
    x_6        OBJ        -9.56043
    x_6        c_1441     1
    x_6        capacity   1.91209
    x_7        OBJ        -1.97256
    x_7        c_1442     1
    x_7        capacity   0.394512
    x_8        OBJ        -5.2647
    x_8        c_1443     1
    x_8        capacity   1.05294
    x_9        OBJ        -6.56272
    x_9        c_1444     1
    x_9        capacity   1.31254
    x_10       OBJ        -1.70672
    x_10       c_1445     1
    x_10       capacity   0.341344
    x_11       OBJ        -3.85943
    x_11       c_1446     1
    x_11       capacity   0.771886
    x_12       OBJ        -7.79076
    x_12       c_1447     1
    x_12       capacity   1.55815
    x_13       OBJ        -3.00155
    x_13       c_1448     1
    x_13       capacity   0.600311
    x_14       OBJ        -3.44198
    x_14       c_1449     1
    x_14       capacity   0.688396
    y_0        OBJ        -5.77356
    y_0        c_1435     1
    y_0        capacity   1.44339
    y_1        OBJ        -6.82825
    y_1        c_1436     1
    y_1        capacity   1.70706
    y_2        OBJ        -2.02148
    y_2        c_1437     1
    y_2        capacity   0.505371
    y_3        OBJ        -1.65539
    y_3        c_1438     1
    y_3        capacity   0.413848
    y_4        OBJ        -5.96985
    y_4        c_1439     1
    y_4        capacity   1.49246
    y_5        OBJ        -1.49191
    y_5        c_1440     1
    y_5        capacity   0.372977
    y_6        OBJ        -7.64834
    y_6        c_1441     1
    y_6        capacity   1.91209
    y_7        OBJ        -1.57805
    y_7        c_1442     1
    y_7        capacity   0.394512
    y_8        OBJ        -4.21176
    y_8        c_1443     1
    y_8        capacity   1.05294
    y_9        OBJ        -5.25018
    y_9        c_1444     1
    y_9        capacity   1.31254
    y_10       OBJ        -1.36538
    y_10       c_1445     1
    y_10       capacity   0.341344
    y_11       OBJ        -3.08754
    y_11       c_1446     1
    y_11       capacity   0.771886
    y_12       OBJ        -6.23261
    y_12       c_1447     1
    y_12       capacity   1.55815
    y_13       OBJ        -2.40124
    y_13       c_1448     1
    y_13       capacity   0.600311
    y_14       OBJ        -2.75358
    y_14       c_1449     1
    y_14       capacity   0.688396
    MARKER    'MARKER'                 'INTEND'
RHS
    RHS       capacity   36.4182
    RHS       c_1435     1
    RHS       c_1436     1
    RHS       c_1437     1
    RHS       c_1438     1
    RHS       c_1439     1
    RHS       c_1440     1
    RHS       c_1441     1
    RHS       c_1442     1
    RHS       c_1443     1
    RHS       c_1444     1
    RHS       c_1445     1
    RHS       c_1446     1
    RHS       c_1447     1
    RHS       c_1448     1
    RHS       c_1449     1
BOUNDS
 LI BND       x_0        0
 UI BND       x_0        1
 LI BND       x_1        0
 UI BND       x_1        1
 LI BND       x_2        0
 UI BND       x_2        1
 LI BND       x_3        0
 UI BND       x_3        1
 LI BND       x_4        0
 UI BND       x_4        1
 LI BND       x_5        0
 UI BND       x_5        1
 LI BND       x_6        0
 UI BND       x_6        1
 LI BND       x_7        0
 UI BND       x_7        1
 LI BND       x_8        0
 UI BND       x_8        1
 LI BND       x_9        0
 UI BND       x_9        1
 LI BND       x_10       0
 UI BND       x_10       1
 LI BND       x_11       0
 UI BND       x_11       1
 LI BND       x_12       0
 UI BND       x_12       1
 LI BND       x_13       0
 UI BND       x_13       1
 LI BND       x_14       0
 UI BND       x_14       1
 LI BND       y_0        0
 UI BND       y_0        1
 LI BND       y_1        0
 UI BND       y_1        1
 LI BND       y_2        0
 UI BND       y_2        1
 LI BND       y_3        0
 UI BND       y_3        1
 LI BND       y_4        0
 UI BND       y_4        1
 LI BND       y_5        0
 UI BND       y_5        1
 LI BND       y_6        0
 UI BND       y_6        1
 LI BND       y_7        0
 UI BND       y_7        1
 LI BND       y_8        0
 UI BND       y_8        1
 LI BND       y_9        0
 UI BND       y_9        1
 LI BND       y_10       0
 UI BND       y_10       1
 LI BND       y_11       0
 UI BND       y_11       1
 LI BND       y_12       0
 UI BND       y_12       1
 LI BND       y_13       0
 UI BND       y_13       1
 LI BND       y_14       0
 UI BND       y_14       1
ENDATA
